25
1 0 8
2 0 7
2 1 4
3 0 5
3 1 2
3 2 3
4 0 7
4 1 4
4 2 5
4 3 7
5 0 2
5 1 7
5 2 1
5 3 8
5 4 7
6 0 5
6 1 6
6 2 10
6 3 8
6 4 6
6 5 7
7 0 10
7 1 3
7 2 5
7 3 3
7 4 5
7 5 5
7 6 4
8 0 10
8 1 1
8 2 3
8 3 7
8 4 2
8 5 9
8 6 7
8 7 2
9 0 9
9 1 10
9 2 4
9 3 10
9 4 8
9 5 2
9 6 2
9 7 3
9 8 8
10 0 2
10 1 5
10 2 3
10 3 5
10 4 8
10 5 1
10 6 3
10 7 9
10 8 6
10 9 4
11 0 7
11 1 6
11 2 1
11 3 6
11 4 3
11 5 8
11 6 5
11 7 4
11 8 4
11 9 9
11 10 7
12 0 9
12 1 7
12 2 6
12 3 1
12 4 1
12 5 7
12 6 1
12 7 2
12 8 4
12 9 5
12 10 2
12 11 3
13 0 2
13 1 8
13 2 4
13 3 6
13 4 4
13 5 3
13 6 9
13 7 9
13 8 1
13 9 7
13 10 6
13 11 6
13 12 6
14 0 9
14 1 9
14 2 8
14 3 4
14 4 2
14 5 2
14 6 4
14 7 10
14 8 2
14 9 9
14 10 2
14 11 1
14 12 1
14 13 2
15 0 8
15 1 2
15 2 6
15 3 7
15 4 9
15 5 1
15 6 7
15 7 4
15 8 7
15 9 4
15 10 2
15 11 5
15 12 4
15 13 3
15 14 5
16 0 2
16 1 2
16 2 8
16 3 5
16 4 6
16 5 1
16 6 7
16 7 10
16 8 10
16 9 1
16 10 2
16 11 9
16 12 2
16 13 5
16 14 3
16 15 8
17 0 9
17 1 10
17 2 7
17 3 5
17 4 4
17 5 4
17 6 10
17 7 3
17 8 2
17 9 6
17 10 8
17 11 9
17 12 4
17 13 2
17 14 2
17 15 3
17 16 3
18 0 3
18 1 6
18 2 4
18 3 6
18 4 10
18 5 9
18 6 6
18 7 9
18 8 2
18 9 7
18 10 7
18 11 10
18 12 3
18 13 8
18 14 3
18 15 2
18 16 2
18 17 10
19 0 8
19 1 6
19 2 7
19 3 6
19 4 6
19 5 3
19 6 1
19 7 7
19 8 8
19 9 10
19 10 9
19 11 1
19 12 2
19 13 9
19 14 8
19 15 8
19 16 5
19 17 6
19 18 10
20 0 5
20 1 6
20 2 1
20 3 5
20 4 8
20 5 3
20 6 2
20 7 7
20 8 2
20 9 6
20 10 3
20 11 6
20 12 8
20 13 7
20 14 8
20 15 9
20 16 5
20 17 1
20 18 7
20 19 8
21 0 8
21 1 10
21 2 3
21 3 9
21 4 6
21 5 5
21 6 2
21 7 7
21 8 3
21 9 9
21 10 9
21 11 8
21 12 2
21 13 8
21 14 4
21 15 2
21 16 6
21 17 8
21 18 3
21 19 4
21 20 8
22 0 5
22 1 2
22 2 3
22 3 6
22 4 8
22 5 4
22 6 8
22 7 3
22 8 1
22 9 7
22 10 6
22 11 8
22 12 4
22 13 9
22 14 7
22 15 5
22 16 10
22 17 2
22 18 1
22 19 2
22 20 7
22 21 3
23 0 2
23 1 10
23 2 3
23 3 8
23 4 5
23 5 1
23 6 1
23 7 5
23 8 8
23 9 4
23 10 2
23 11 9
23 12 1
23 13 1
23 14 9
23 15 1
23 16 8
23 17 3
23 18 8
23 19 2
23 20 2
23 21 1
23 22 6
24 0 9
24 1 4
24 2 5
24 3 6
24 4 7
24 5 9
24 6 4
24 7 2
24 8 10
24 9 10
24 10 2
24 11 8
24 12 8
24 13 7
24 14 8
24 15 10
24 16 2
24 17 8
24 18 3
24 19 6
24 20 10
24 21 7
24 22 8
24 23 3
